c uprop, v00.0, 
c reading from data/prog680.c.cnf
c done reading: 0.002266
p cnf 165 757
-70 -91 0
-70 -87 0
70 87 91 0
-64 87 91 0
-64 -87 -91 0
64 87 -91 0
64 -87 91 0
70 -82 0
-80 -82 0
-70 80 82 0
-70 -75 80 0
70 -75 -80 0
70 75 80 0
-70 75 -80 0
-71 82 0
-68 -71 0
68 71 -82 0
-66 68 -82 0
-66 -68 82 0
66 68 82 0
66 -68 -82 0
-65 71 0
-62 -65 0
62 65 -71 0
62 -71 -89 0
-62 71 -89 0
62 71 89 0
-62 -71 89 0
65 -93 0
-84 -93 0
-65 84 93 0
-65 84 -94 0
65 -84 -94 0
65 84 94 0
-65 -84 94 0
93 -95 0
-77 -95 0
77 -93 95 0
77 -93 -96 0
-77 93 -96 0
77 93 96 0
-77 -93 96 0
95 -97 0
-73 -97 0
73 -95 97 0
73 -95 -98 0
-73 95 -98 0
73 95 98 0
-73 -95 98 0
87 -99 0
91 -99 0
-87 -91 99 0
-87 -91 -100 0
87 91 -100 0
-87 91 100 0
87 -91 100 0
-80 -87 101 0
-80 -99 101 0
-87 -99 101 0
80 87 -101 0
80 99 -101 0
87 99 -101 0
80 -101 -102 0
87 -101 -102 0
99 -101 -102 0
-80 101 102 0
-87 101 102 0
-99 101 102 0
-80 -87 -99 102 0
80 87 99 -102 0
-68 -80 103 0
-68 -101 103 0
-80 -101 103 0
68 80 -103 0
68 101 -103 0
80 101 -103 0
68 -103 -104 0
80 -103 -104 0
101 -103 -104 0
-68 103 104 0
-80 103 104 0
-101 103 104 0
-68 -80 -101 104 0
68 80 101 -104 0
-62 -68 105 0
-62 -103 105 0
-68 -103 105 0
62 68 -105 0
62 103 -105 0
68 103 -105 0
-60 62 -105 0
-60 68 -105 0
-60 103 -105 0
60 -62 105 0
60 -68 105 0
60 -103 105 0
60 -62 -68 -103 0
-60 62 68 103 0
59 -62 -84 0
59 -84 -105 0
59 -62 -105 0
-59 62 84 0
-59 84 105 0
-59 62 105 0
-58 -59 84 0
-58 -59 62 0
-58 -59 105 0
58 59 -84 0
58 59 -62 0
58 59 -105 0
58 -62 -84 -105 0
-58 62 84 105 0
57 -77 -84 0
57 -59 -77 0
57 -59 -84 0
-57 77 84 0
-57 59 77 0
-57 59 84 0
-56 -57 77 0
-56 -57 84 0
-56 -57 59 0
56 57 -77 0
56 57 -84 0
56 57 -59 0
56 -59 -77 -84 0
-56 59 77 84 0
55 -73 -77 0
55 -57 -73 0
55 -57 -77 0
-55 73 77 0
-55 57 73 0
-55 57 77 0
-55 73 -90 0
-55 77 -90 0
-55 57 -90 0
55 -73 90 0
55 -77 90 0
55 -57 90 0
-57 -73 -77 90 0
57 73 77 -90 0
73 -86 0
55 -86 0
-55 -73 86 0
-55 -73 -79 0
55 73 -79 0
55 -73 79 0
-55 73 79 0
-67 104 0
-67 91 0
67 -91 -104 0
-61 -91 -104 0
-61 91 104 0
61 91 -104 0
61 -91 104 0
-60 83 -87 0
-60 -67 83 0
-67 83 -87 0
60 -83 87 0
60 67 -83 0
67 -83 87 0
60 -76 -83 0
-76 -83 87 0
67 -76 -83 0
-60 76 83 0
76 83 -87 0
-67 76 83 0
-60 -67 76 -87 0
60 67 -76 87 0
-58 72 -80 0
-58 72 -83 0
72 -80 -83 0
58 -72 80 0
58 -72 83 0
-72 80 83 0
-54 58 -72 0
-54 -72 80 0
-54 -72 83 0
54 -58 72 0
54 72 -80 0
54 72 -83 0
54 -58 -80 -83 0
-54 58 80 83 0
53 -56 -68 0
53 -56 -72 0
53 -68 -72 0
-53 56 68 0
-53 56 72 0
-53 68 72 0
-52 -53 56 0
-52 -53 68 0
-52 -53 72 0
52 53 -56 0
52 53 -68 0
52 53 -72 0
52 -56 -68 -72 0
-52 56 68 72 0
51 -62 -90 0
51 -53 -90 0
51 -53 -62 0
-51 62 90 0
-51 53 90 0
-51 53 62 0
-50 -51 90 0
-50 -51 62 0
-50 -51 53 0
50 51 -90 0
50 51 -62 0
50 51 -53 0
50 -53 -62 -90 0
-50 53 62 90 0
49 -79 -84 0
49 -51 -79 0
49 -51 -84 0
-49 79 84 0
-49 51 79 0
-49 51 84 0
-48 -49 79 0
-48 -49 84 0
-48 -49 51 0
48 49 -79 0
48 49 -84 0
48 49 -51 0
48 -51 -79 -84 0
-48 51 79 84 0
47 -77 -86 0
47 -49 -86 0
47 -49 -77 0
-47 77 86 0
-47 49 86 0
-47 49 77 0
-46 -47 86 0
-46 -47 77 0
-46 -47 49 0
46 47 -86 0
46 47 -77 0
46 47 -49 0
46 -49 -77 -86 0
-46 49 77 86 0
-45 73 0
-45 47 0
45 -47 -73 0
-44 -47 -73 0
-44 47 73 0
44 47 -73 0
44 -47 73 0
-43 54 0
-43 91 0
43 -54 -91 0
-42 -54 -91 0
-42 54 91 0
42 -54 91 0
42 54 -91 0
41 -52 -87 0
41 -43 -52 0
41 -43 -87 0
-41 52 87 0
-41 43 52 0
-41 43 87 0
-40 -41 52 0
-40 -41 87 0
-40 -41 43 0
40 41 -52 0
40 41 -87 0
40 41 -43 0
40 -43 -52 -87 0
-40 43 52 87 0
39 -50 -80 0
39 -41 -50 0
39 -41 -80 0
-39 50 80 0
-39 41 50 0
-39 41 80 0
-39 50 -106 0
-39 80 -106 0
-39 41 -106 0
39 -50 106 0
39 -80 106 0
39 -41 106 0
-41 -50 -80 106 0
41 50 80 -106 0
-48 -68 107 0
-39 -48 107 0
-39 -68 107 0
48 68 -107 0
39 48 -107 0
39 68 -107 0
48 -107 -108 0
68 -107 -108 0
39 -107 -108 0
-48 107 108 0
-68 107 108 0
-39 107 108 0
-39 -48 -68 108 0
39 48 68 -108 0
-46 -62 109 0
-46 -107 109 0
-62 -107 109 0
46 62 -109 0
46 107 -109 0
62 107 -109 0
46 -109 -110 0
62 -109 -110 0
107 -109 -110 0
-46 109 110 0
-62 109 110 0
-107 109 110 0
-46 -62 -107 110 0
46 62 107 -110 0
-44 -84 111 0
-44 -109 111 0
-84 -109 111 0
44 84 -111 0
44 109 -111 0
84 109 -111 0
44 -111 -112 0
84 -111 -112 0
109 -111 -112 0
-44 111 112 0
-84 111 112 0
-109 111 112 0
-44 -84 -109 112 0
44 84 109 -112 0
-45 -77 113 0
-45 -111 113 0
-77 -111 113 0
45 77 -113 0
45 111 -113 0
77 111 -113 0
45 -113 -114 0
77 -113 -114 0
111 -113 -114 0
-45 113 114 0
-77 113 114 0
-111 113 114 0
-45 -77 -111 114 0
45 77 111 -114 0
73 -115 0
113 -115 0
-73 -113 115 0
-73 -113 -116 0
73 113 -116 0
-73 113 116 0
73 -113 116 0
-91 -117 0
-100 -117 0
91 100 117 0
91 100 -118 0
-91 -100 -118 0
-91 100 118 0
91 -100 118 0
117 -119 0
-102 -119 0
102 -117 119 0
102 -117 -120 0
-102 117 -120 0
102 117 120 0
-102 -117 120 0
119 -121 0
-61 -121 0
61 -119 121 0
61 -119 -122 0
-61 119 -122 0
61 119 122 0
-61 -119 122 0
121 -123 0
-76 -123 0
76 -121 123 0
76 -121 -124 0
-76 121 -124 0
76 121 124 0
-76 -121 124 0
123 -125 0
-42 -125 0
42 -123 125 0
42 -123 -126 0
-42 123 -126 0
42 123 126 0
-42 -123 126 0
125 -127 0
-40 -127 0
40 -125 127 0
40 -125 -128 0
-40 125 -128 0
40 125 128 0
-40 -125 128 0
127 -129 0
-106 -129 0
106 -127 129 0
106 -127 -130 0
-106 127 -130 0
106 127 130 0
-106 -127 130 0
129 -131 0
-108 -131 0
108 -129 131 0
108 -129 -132 0
-108 129 -132 0
108 129 132 0
-108 -129 132 0
131 -133 0
-110 -133 0
110 -131 133 0
110 -131 -134 0
-110 131 -134 0
110 131 134 0
-110 -131 134 0
133 -135 0
-112 -135 0
112 -133 135 0
112 -133 -136 0
-112 133 -136 0
112 133 136 0
-112 -133 136 0
135 -137 0
-114 -137 0
114 -135 137 0
114 -135 -138 0
-114 135 -138 0
114 135 138 0
-114 -135 138 0
137 -139 0
-116 -139 0
116 -137 139 0
116 -137 -140 0
-116 137 -140 0
116 137 140 0
-116 -137 140 0
139 -141 0
-115 -141 0
115 -139 141 0
115 -139 -142 0
-115 139 -142 0
115 139 142 0
-115 -139 142 0
-143 -145 0
-145 -146 0
143 145 146 0
143 146 -148 0
-143 -146 -148 0
-143 146 148 0
143 -146 148 0
145 -149 0
-149 -150 0
-145 149 150 0
-145 150 -152 0
145 -150 -152 0
145 150 152 0
-145 -150 152 0
149 -153 0
-153 -154 0
-149 153 154 0
-149 154 -156 0
149 -154 -156 0
149 154 156 0
-149 -154 156 0
153 -157 0
-157 -158 0
-153 157 158 0
-92 -153 158 0
-92 153 -158 0
92 153 158 0
92 -153 -158 0
-88 157 0
-88 -160 0
88 -157 160 0
-81 -157 160 0
-81 157 -160 0
81 157 160 0
81 -157 -160 0
-69 88 0
-69 -162 0
69 -88 162 0
-63 -88 162 0
-63 88 -162 0
63 88 162 0
63 -88 -162 0
69 -85 0
-85 -164 0
-69 85 164 0
-69 -78 164 0
69 -78 -164 0
69 78 164 0
-69 78 -164 0
-74 146 0
-74 143 0
74 -143 -146 0
-143 -144 -146 0
143 -144 146 0
143 144 -146 0
-143 144 146 0
-146 147 -150 0
-74 147 -150 0
-74 -146 147 0
146 -147 150 0
74 -147 150 0
74 146 -147 0
-147 150 -151 0
146 -147 -151 0
74 -147 -151 0
147 -150 151 0
-146 147 151 0
-74 147 151 0
-74 -146 -150 151 0
74 146 150 -151 0
-150 -154 155 0
-147 -154 155 0
-147 -150 155 0
150 154 -155 0
147 154 -155 0
147 150 -155 0
154 -155 -159 0
150 -155 -159 0
147 -155 -159 0
-154 155 159 0
-150 155 159 0
-147 155 159 0
-147 -150 -154 159 0
147 150 154 -159 0
-154 -158 161 0
-155 -158 161 0
-154 -155 161 0
154 158 -161 0
155 158 -161 0
154 155 -161 0
158 -161 -163 0
154 -161 -163 0
155 -161 -163 0
-158 161 163 0
-154 161 163 0
-155 161 163 0
-154 -155 -158 163 0
154 155 158 -163 0
-158 -160 165 0
-160 -161 165 0
-158 -161 165 0
158 160 -165 0
160 161 -165 0
158 161 -165 0
-38 160 -165 0
-38 158 -165 0
-38 161 -165 0
38 -160 165 0
38 -158 165 0
38 -161 165 0
38 -158 -160 -161 0
-38 158 160 161 0
37 -160 -162 0
37 -162 -165 0
37 -160 -165 0
-37 160 162 0
-37 162 165 0
-37 160 165 0
-36 -37 162 0
-36 -37 160 0
-36 -37 165 0
36 37 -162 0
36 37 -160 0
36 37 -165 0
36 -160 -162 -165 0
-36 160 162 165 0
35 -162 -164 0
35 -37 -164 0
35 -37 -162 0
-35 162 164 0
-35 37 164 0
-35 37 162 0
-34 -35 164 0
-34 -35 162 0
-34 -35 37 0
34 35 -164 0
34 35 -162 0
34 35 -37 0
34 -37 -162 -164 0
-34 37 162 164 0
-33 164 0
-33 35 0
33 -35 -164 0
-32 -35 -164 0
-32 35 164 0
32 35 -164 0
32 -35 164 0
-31 -143 0
-31 -144 0
31 143 144 0
-30 143 144 0
-30 -143 -144 0
30 -143 144 0
30 143 -144 0
-29 31 0
-29 -151 0
29 -31 151 0
-28 -31 151 0
-28 31 -151 0
28 31 151 0
28 -31 -151 0
-27 29 0
-27 -159 0
27 -29 159 0
-26 -29 159 0
-26 29 -159 0
26 29 159 0
26 -29 -159 0
-25 27 0
-25 -163 0
25 -27 163 0
-24 -27 163 0
-24 27 -163 0
24 27 163 0
24 -27 -163 0
-23 25 0
-23 -38 0
23 -25 38 0
-22 -25 38 0
-22 25 -38 0
22 25 38 0
22 -25 -38 0
-21 23 0
-21 -36 0
21 -23 36 0
-20 -23 36 0
-20 23 -36 0
20 23 36 0
20 -23 -36 0
-19 21 0
-19 -34 0
19 -21 34 0
-18 -21 34 0
-18 21 -34 0
18 21 34 0
18 -21 -34 0
-17 19 0
-17 -32 0
17 -19 32 0
-16 -19 32 0
-16 19 -32 0
16 19 32 0
16 -19 -32 0
-15 17 0
-15 -33 0
15 -17 33 0
-14 -17 33 0
-14 17 -33 0
14 17 33 0
14 -17 -33 0
-13 91 0
-13 143 0
13 -91 -143 0
-91 143 0
91 -143 0
12 -100 -144 0
12 -13 -100 0
12 -13 -144 0
-12 100 144 0
-12 13 100 0
-12 13 144 0
12 -100 0
12 -144 0
12 -13 0
-13 -100 -144 0
11 -102 -151 0
11 -12 -102 0
11 -12 -151 0
-11 102 151 0
-11 12 102 0
-11 12 151 0
11 -102 0
11 -151 0
11 -12 0
-12 -102 -151 0
10 -61 -159 0
10 -11 -61 0
10 -11 -159 0
-10 61 159 0
-10 11 61 0
-10 11 159 0
-10 61 0
-10 159 0
-10 11 0
11 61 159 0
9 -76 -163 0
9 -10 -76 0
9 -10 -163 0
-9 76 163 0
-9 10 76 0
-9 10 163 0
-9 76 0
-9 163 0
-9 10 0
10 76 163 0
8 -38 -42 0
8 -9 -42 0
8 -9 -38 0
-8 38 42 0
-8 9 42 0
-8 9 38 0
8 -42 0
8 -38 0
8 -9 0
-9 -38 -42 0
7 -36 -40 0
7 -8 -40 0
7 -8 -36 0
-7 36 40 0
-7 8 40 0
-7 8 36 0
7 -40 0
7 -36 0
7 -8 0
-8 -36 -40 0
6 -34 -106 0
6 -7 -106 0
6 -7 -34 0
-6 34 106 0
-6 7 106 0
-6 7 34 0
6 -106 0
6 -34 0
6 -7 0
-7 -34 -106 0
5 -32 -108 0
5 -6 -108 0
5 -6 -32 0
-5 32 108 0
-5 6 108 0
-5 6 32 0
5 -108 0
5 -32 0
5 -6 0
-6 -32 -108 0
4 -33 -110 0
4 -5 -110 0
4 -5 -33 0
-4 33 110 0
-4 5 110 0
-4 5 33 0
4 -110 0
4 -33 0
4 -5 0
-5 -33 -110 0
-3 112 0
-3 4 0
3 -4 -112 0
4 -112 0
-4 112 0
-2 114 0
-2 3 0
2 -3 -114 0
3 -114 0
-3 114 0
-1 116 0
-1 2 0
1 -2 -116 0
2 -116 0
-2 116 0
-1 -115 0
1 -115 0
-1 115 0
